asp/input/in_60_30_8_3.lp
#const n = 60.
#const k = 30.
#const h = 8.
tile(1,13,21).
tile(2,21,2).
tile(3,17,3).
tile(4,20,22).
tile(5,8,16).
tile(6,8,3).
tile(7,12,15).
tile(8,22,18).
tile(9,24,8).
tile(10,9,1).
tile(11,4,4).
tile(12,27,22).
tile(13,17,28).
tile(14,17,17).
tile(15,17,1).
tile(16,20,23).
tile(17,11,23).
tile(18,30,28).
tile(19,20,10).
tile(20,20,8).
tile(21,1,28).
tile(22,13,9).
tile(23,3,15).
tile(24,13,27).
tile(25,22,19).
tile(26,1,6).
tile(27,20,21).
tile(28,27,6).
tile(29,13,10).
tile(30,2,29).
tile(31,21,16).
tile(32,13,25).
tile(33,7,10).
tile(34,9,28).
tile(35,27,27).
tile(36,24,8).
tile(37,19,24).
tile(38,30,17).
tile(39,25,12).
tile(40,8,7).
tile(41,22,8).
tile(42,19,21).
tile(43,24,30).
tile(44,25,1).
tile(45,15,24).
tile(46,22,13).
tile(47,26,11).
tile(48,25,20).
tile(49,23,1).
tile(50,21,1).
tile(51,21,17).
tile(52,11,20).
tile(53,22,7).
tile(54,30,22).
tile(55,14,22).
tile(56,10,18).
tile(57,23,18).
tile(58,19,21).
tile(59,13,6).
tile(60,1,27).
