instances/in_60_30_8_3.dzn
n = 60;
k = 30;
h = 8;
tiles = array2d(1..n, 1..2,
[ 13,21
, 21,2
, 17,3
, 20,22
, 8,16
, 8,3
, 12,15
, 22,18
, 24,8
, 9,1
, 4,4
, 27,22
, 17,28
, 17,17
, 17,1
, 20,23
, 11,23
, 30,28
, 20,10
, 20,8
, 1,28
, 13,9
, 3,15
, 13,27
, 22,19
, 1,6
, 20,21
, 27,6
, 13,10
, 2,29
, 21,16
, 13,25
, 7,10
, 9,28
, 27,27
, 24,8
, 19,24
, 30,17
, 25,12
, 8,7
, 22,8
, 19,21
, 24,30
, 25,1
, 15,24
, 22,13
, 26,11
, 25,20
, 23,1
, 21,1
, 21,17
, 11,20
, 22,7
, 30,22
, 14,22
, 10,18
, 23,18
, 19,21
, 13,6
, 1,27
]);